
Gurobi 10.0.3 (linux64, gurobi_cl) logging started Thu Nov  2 11:34:15 2023

Set parameter Username
Set parameter TimeLimit to value 3600
Set parameter LogFile to value "RCPSP_491.log"
Set parameter Threads to value 32
Academic license - for non-commercial use only - expires 2024-10-30
Using license file /home/jrivera6/gurobi-licenses/v1003/compute-0-35/gurobi.lic

Gurobi Optimizer version 10.0.3 build v10.0.3rc0 (linux64)
Copyright (c) 2023, Gurobi Optimization, LLC

Read MPS format model from file RCPSP_491.mps
Reading time = 0.02 seconds
RCPSP_491: 19624 rows, 7750 columns, 60918 nonzeros

CPU model: Intel(R) Xeon(R) Gold 6130 CPU @ 2.10GHz, instruction set [SSE2|AVX|AVX2|AVX512]
Thread count: 32 physical cores, 32 logical processors, using up to 32 threads

Optimize a model with 19624 rows, 7750 columns and 60918 nonzeros
Model fingerprint: 0x345552d4
Variable types: 62 continuous, 7688 integer (7688 binary)
Coefficient statistics:
  Matrix range     [1e+00, 3e+02]
  Objective range  [1e+00, 1e+00]
  Bounds range     [1e+00, 1e+00]
  RHS range        [1e+00, 3e+02]
Presolve removed 6533 rows and 2180 columns
Presolve time: 2.18s
Presolved: 13091 rows, 5570 columns, 42294 nonzeros
Variable types: 61 continuous, 5509 integer (5509 binary)

Root relaxation: objective 6.500000e+01, 1887 iterations, 0.04 seconds (0.02 work units)

    Nodes    |    Current Node    |     Objective Bounds      |     Work
 Expl Unexpl |  Obj  Depth IntInf | Incumbent    BestBd   Gap | It/Node Time

     0     0   65.00000    0    4          -   65.00000      -     -    2s
     0     0   65.00000    0   97          -   65.00000      -     -    5s
     0     0   65.00000    0    4          -   65.00000      -     -    6s
     0     0   65.00000    0    6          -   65.00000      -     -    7s
     0     0   65.00000    0    2          -   65.00000      -     -    8s
     0     0   65.00000    0    2          -   65.00000      -     -    8s
     0     0   65.00000    0    4          -   65.00000      -     -    9s
     0     0   65.00000    0    7          -   65.00000      -     -    9s
     0     0   65.00000    0    2          -   65.00000      -     -   10s
H    0     0                     324.0000000   65.00000  79.9%     -   10s
     0     0   65.00000    0    2  324.00000   65.00000  79.9%     -   10s
H    0     0                      67.0000000   65.00000  2.99%     -   11s
H    0     0                      65.0000000   65.00000  0.00%     -   19s
     0     0   65.00000    0    2   65.00000   65.00000  0.00%     -   19s

Explored 1 nodes (14614 simplex iterations) in 19.50 seconds (3.47 work units)
Thread count was 32 (of 32 available processors)

Solution count 3: 65 67 324 

Optimal solution found (tolerance 1.00e-04)
Best objective 6.500000000000e+01, best bound 6.500000000000e+01, gap 0.0000%

Wrote result file 'RCPSP_491.sol'

